# Objective value = 951
y(1,1,1) 0
y(1,1,2) 0
y(1,1,3) 0
y(1,1,4) 0
y(1,1,5) 0
y(2,2,1) 0
y(2,2,2) 0
y(2,2,3) 0
y(2,2,4) 0
y(2,2,5) 0
y(3,3,1) 0
y(3,3,2) 0
y(3,3,3) 0
y(3,3,4) 0
y(3,3,5) 0
y(4,4,1) 0
y(4,4,2) 0
y(4,4,3) 0
y(4,4,4) 0
y(4,4,5) 0
y(5,5,1) 0
y(5,5,2) 0
y(5,5,3) 0
y(5,5,4) 0
y(5,5,5) 0
y(6,6,1) 0
y(6,6,2) 0
y(6,6,3) 0
y(6,6,4) 0
y(6,6,5) 0
y(7,7,1) 0
y(7,7,2) 0
y(7,7,3) 0
y(7,7,4) 0
y(7,7,5) 0
y(8,8,1) 0
y(8,8,2) 0
y(8,8,3) 0
y(8,8,4) 0
y(8,8,5) 0
y(9,9,1) 0
y(9,9,2) 0
y(9,9,3) 0
y(9,9,4) 0
y(9,9,5) 0
y(10,10,1) 0
y(10,10,2) 0
y(10,10,3) 0
y(10,10,4) 0
y(10,10,5) 0
y(11,11,1) 0
y(11,11,2) 0
y(11,11,3) 0
y(11,11,4) 0
y(11,11,5) 0
y(12,12,1) 0
y(12,12,2) 0
y(12,12,3) 0
y(12,12,4) 0
y(12,12,5) 0
y(13,13,1) 0
y(13,13,2) 0
y(13,13,3) 0
y(13,13,4) 0
y(13,13,5) 0
y(14,14,1) 0
y(14,14,2) 0
y(14,14,3) 0
y(14,14,4) 0
y(14,14,5) 0
y(15,15,1) 0
y(15,15,2) 0
y(15,15,3) 0
y(15,15,4) 0
y(15,15,5) 0
Z 951
x(1,2) 84
x(1,4) 342
x(1,3) 470
x(1,1) 584
x(1,5) 759
x(2,2) 719
x(2,4) 181
x(2,3) 783
x(2,5) 829
x(2,1) 885
x(3,4) 427
x(3,5) 174
x(3,2) 535
x(3,3) 622
x(3,1) 844
x(4,1) 0
x(4,2) 17
x(4,3) 413
x(4,4) 755
x(4,5) 894
x(5,1) 213
x(5,5) 308
x(5,3) 372
x(5,4) 507
x(5,2) 873
x(6,1) 14
x(6,4) 591
x(6,2) 673
x(6,3) 719
x(6,5) 842
x(7,3) 199
x(7,4) 0
x(7,5) 372
x(7,2) 524
x(7,1) 646
x(8,2) 342
x(8,3) 217
x(8,4) 619
x(8,5) 721
x(8,1) 759
x(9,3) 43
x(9,5) 262
x(9,1) 308
x(9,2) 608
x(9,4) 858
x(10,3) 0
x(10,5) 89
x(10,4) 310
x(10,2) 439
x(10,1) 524
x(11,4) 140
x(11,5) 40
x(11,3) 284
x(11,1) 367
x(11,2) 783
x(12,1) 114
x(12,2) 0
x(12,4) 240
x(12,5) 524
x(12,3) 902
x(13,4) 67
x(13,5) 0
x(13,1) 140
x(13,2) 244
x(13,3) 554
x(14,2) 150
x(14,4) 10
x(14,3) 362
x(14,1) 433
x(14,5) 623
x(15,1) 77
x(15,2) 159
x(15,3) 345
x(15,5) 445
x(15,4) 714
y(1,2,1) 1
y(1,2,2) 1
y(1,2,3) 1
y(1,2,4) 0
y(1,2,5) 1
y(1,3,1) 1
y(1,3,2) 1
y(1,3,3) 1
y(1,3,4) 1
y(1,3,5) 0
y(1,4,1) 0
y(1,4,2) 0
y(1,4,3) 0
y(1,4,4) 1
y(1,4,5) 1
y(1,5,1) 0
y(1,5,2) 1
y(1,5,3) 0
y(1,5,4) 1
y(1,5,5) 0
y(1,6,1) 0
y(1,6,2) 1
y(1,6,3) 1
y(1,6,4) 1
y(1,6,5) 1
y(1,7,1) 1
y(1,7,2) 1
y(1,7,3) 0
y(1,7,4) 0
y(1,7,5) 0
y(1,8,1) 1
y(1,8,2) 1
y(1,8,3) 0
y(1,8,4) 1
y(1,8,5) 0
y(1,9,1) 0
y(1,9,2) 1
y(1,9,3) 0
y(1,9,4) 1
y(1,9,5) 0
y(1,10,1) 0
y(1,10,2) 1
y(1,10,3) 0
y(1,10,4) 0
y(1,10,5) 0
y(1,11,1) 0
y(1,11,2) 1
y(1,11,3) 0
y(1,11,4) 0
y(1,11,5) 0
y(1,12,1) 0
y(1,12,2) 0
y(1,12,3) 1
y(1,12,4) 0
y(1,12,5) 0
y(1,13,1) 0
y(1,13,2) 1
y(1,13,3) 1
y(1,13,4) 0
y(1,13,5) 0
y(1,14,1) 0
y(1,14,2) 1
y(1,14,3) 0
y(1,14,4) 0
y(1,14,5) 0
y(1,15,1) 0
y(1,15,2) 1
y(1,15,3) 0
y(1,15,4) 1
y(1,15,5) 0
y(2,1,1) 0
y(2,1,2) 0
y(2,1,3) 0
y(2,1,4) 1
y(2,1,5) 0
y(2,3,1) 0
y(2,3,2) 0
y(2,3,3) 0
y(2,3,4) 1
y(2,3,5) 0
y(2,4,1) 0
y(2,4,2) 0
y(2,4,3) 0
y(2,4,4) 1
y(2,4,5) 1
y(2,5,1) 0
y(2,5,2) 1
y(2,5,3) 0
y(2,5,4) 1
y(2,5,5) 0
y(2,6,1) 0
y(2,6,2) 0
y(2,6,3) 0
y(2,6,4) 1
y(2,6,5) 1
y(2,7,1) 0
y(2,7,2) 0
y(2,7,3) 0
y(2,7,4) 0
y(2,7,5) 0
y(2,8,1) 0
y(2,8,2) 0
y(2,8,3) 0
y(2,8,4) 1
y(2,8,5) 0
y(2,9,1) 0
y(2,9,2) 0
y(2,9,3) 0
y(2,9,4) 1
y(2,9,5) 0
y(2,10,1) 0
y(2,10,2) 0
y(2,10,3) 0
y(2,10,4) 1
y(2,10,5) 0
y(2,11,1) 0
y(2,11,2) 1
y(2,11,3) 0
y(2,11,4) 0
y(2,11,5) 0
y(2,12,1) 0
y(2,12,2) 0
y(2,12,3) 1
y(2,12,4) 1
y(2,12,5) 0
y(2,13,1) 0
y(2,13,2) 0
y(2,13,3) 0
y(2,13,4) 0
y(2,13,5) 0
y(2,14,1) 0
y(2,14,2) 0
y(2,14,3) 0
y(2,14,4) 0
y(2,14,5) 0
y(2,15,1) 0
y(2,15,2) 0
y(2,15,3) 0
y(2,15,4) 1
y(2,15,5) 0
y(3,1,1) 0
y(3,1,2) 0
y(3,1,3) 0
y(3,1,4) 0
y(3,1,5) 1
y(3,2,1) 1
y(3,2,2) 1
y(3,2,3) 1
y(3,2,4) 0
y(3,2,5) 1
y(3,4,1) 0
y(3,4,2) 0
y(3,4,3) 0
y(3,4,4) 1
y(3,4,5) 1
y(3,5,1) 0
y(3,5,2) 1
y(3,5,3) 0
y(3,5,4) 1
y(3,5,5) 1
y(3,6,1) 0
y(3,6,2) 1
y(3,6,3) 1
y(3,6,4) 1
y(3,6,5) 1
y(3,7,1) 0
y(3,7,2) 0
y(3,7,3) 0
y(3,7,4) 0
y(3,7,5) 1
y(3,8,1) 0
y(3,8,2) 0
y(3,8,3) 0
y(3,8,4) 1
y(3,8,5) 1
y(3,9,1) 0
y(3,9,2) 1
y(3,9,3) 0
y(3,9,4) 1
y(3,9,5) 1
y(3,10,1) 0
y(3,10,2) 0
y(3,10,3) 0
y(3,10,4) 0
y(3,10,5) 0
y(3,11,1) 0
y(3,11,2) 1
y(3,11,3) 0
y(3,11,4) 0
y(3,11,5) 0
y(3,12,1) 0
y(3,12,2) 0
y(3,12,3) 1
y(3,12,4) 0
y(3,12,5) 1
y(3,13,1) 0
y(3,13,2) 0
y(3,13,3) 0
y(3,13,4) 0
y(3,13,5) 0
y(3,14,1) 0
y(3,14,2) 0
y(3,14,3) 0
y(3,14,4) 0
y(3,14,5) 1
y(3,15,1) 0
y(3,15,2) 0
y(3,15,3) 0
y(3,15,4) 1
y(3,15,5) 1
y(4,1,1) 1
y(4,1,2) 1
y(4,1,3) 1
y(4,1,4) 0
y(4,1,5) 0
y(4,2,1) 1
y(4,2,2) 1
y(4,2,3) 1
y(4,2,4) 0
y(4,2,5) 0
y(4,3,1) 1
y(4,3,2) 1
y(4,3,3) 1
y(4,3,4) 0
y(4,3,5) 0
y(4,5,1) 1
y(4,5,2) 1
y(4,5,3) 0
y(4,5,4) 0
y(4,5,5) 0
y(4,6,1) 1
y(4,6,2) 1
y(4,6,3) 1
y(4,6,4) 0
y(4,6,5) 0
y(4,7,1) 1
y(4,7,2) 1
y(4,7,3) 0
y(4,7,4) 0
y(4,7,5) 0
y(4,8,1) 1
y(4,8,2) 1
y(4,8,3) 0
y(4,8,4) 0
y(4,8,5) 0
y(4,9,1) 1
y(4,9,2) 1
y(4,9,3) 0
y(4,9,4) 1
y(4,9,5) 0
y(4,10,1) 1
y(4,10,2) 1
y(4,10,3) 0
y(4,10,4) 0
y(4,10,5) 0
y(4,11,1) 1
y(4,11,2) 1
y(4,11,3) 0
y(4,11,4) 0
y(4,11,5) 0
y(4,12,1) 1
y(4,12,2) 0
y(4,12,3) 1
y(4,12,4) 0
y(4,12,5) 0
y(4,13,1) 1
y(4,13,2) 1
y(4,13,3) 1
y(4,13,4) 0
y(4,13,5) 0
y(4,14,1) 1
y(4,14,2) 1
y(4,14,3) 0
y(4,14,4) 0
y(4,14,5) 0
y(4,15,1) 1
y(4,15,2) 1
y(4,15,3) 0
y(4,15,4) 0
y(4,15,5) 0
y(5,1,1) 1
y(5,1,2) 0
y(5,1,3) 1
y(5,1,4) 0
y(5,1,5) 1
y(5,2,1) 1
y(5,2,2) 0
y(5,2,3) 1
y(5,2,4) 0
y(5,2,5) 1
y(5,3,1) 1
y(5,3,2) 0
y(5,3,3) 1
y(5,3,4) 0
y(5,3,5) 0
y(5,4,1) 0
y(5,4,2) 0
y(5,4,3) 1
y(5,4,4) 1
y(5,4,5) 1
y(5,6,1) 0
y(5,6,2) 0
y(5,6,3) 1
y(5,6,4) 1
y(5,6,5) 1
y(5,7,1) 1
y(5,7,2) 0
y(5,7,3) 0
y(5,7,4) 0
y(5,7,5) 1
y(5,8,1) 1
y(5,8,2) 0
y(5,8,3) 0
y(5,8,4) 1
y(5,8,5) 1
y(5,9,1) 1
y(5,9,2) 0
y(5,9,3) 0
y(5,9,4) 1
y(5,9,5) 0
y(5,10,1) 1
y(5,10,2) 0
y(5,10,3) 0
y(5,10,4) 0
y(5,10,5) 0
y(5,11,1) 1
y(5,11,2) 0
y(5,11,3) 0
y(5,11,4) 0
y(5,11,5) 0
y(5,12,1) 0
y(5,12,2) 0
y(5,12,3) 1
y(5,12,4) 0
y(5,12,5) 1
y(5,13,1) 0
y(5,13,2) 0
y(5,13,3) 1
y(5,13,4) 0
y(5,13,5) 0
y(5,14,1) 1
y(5,14,2) 0
y(5,14,3) 0
y(5,14,4) 0
y(5,14,5) 1
y(5,15,1) 0
y(5,15,2) 0
y(5,15,3) 0
y(5,15,4) 1
y(5,15,5) 1
y(6,1,1) 1
y(6,1,2) 0
y(6,1,3) 0
y(6,1,4) 0
y(6,1,5) 0
y(6,2,1) 1
y(6,2,2) 1
y(6,2,3) 1
y(6,2,4) 0
y(6,2,5) 0
y(6,3,1) 1
y(6,3,2) 0
y(6,3,3) 0
y(6,3,4) 0
y(6,3,5) 0
y(6,4,1) 0
y(6,4,2) 0
y(6,4,3) 0
y(6,4,4) 1
y(6,4,5) 1
y(6,5,1) 1
y(6,5,2) 1
y(6,5,3) 0
y(6,5,4) 0
y(6,5,5) 0
y(6,7,1) 1
y(6,7,2) 0
y(6,7,3) 0
y(6,7,4) 0
y(6,7,5) 0
y(6,8,1) 1
y(6,8,2) 0
y(6,8,3) 0
y(6,8,4) 1
y(6,8,5) 0
y(6,9,1) 1
y(6,9,2) 0
y(6,9,3) 0
y(6,9,4) 1
y(6,9,5) 0
y(6,10,1) 1
y(6,10,2) 0
y(6,10,3) 0
y(6,10,4) 0
y(6,10,5) 0
y(6,11,1) 1
y(6,11,2) 1
y(6,11,3) 0
y(6,11,4) 0
y(6,11,5) 0
y(6,12,1) 1
y(6,12,2) 0
y(6,12,3) 1
y(6,12,4) 0
y(6,12,5) 0
y(6,13,1) 1
y(6,13,2) 0
y(6,13,3) 0
y(6,13,4) 0
y(6,13,5) 0
y(6,14,1) 1
y(6,14,2) 0
y(6,14,3) 0
y(6,14,4) 0
y(6,14,5) 0
y(6,15,1) 1
y(6,15,2) 0
y(6,15,3) 0
y(6,15,4) 1
y(6,15,5) 0
y(7,1,1) 0
y(7,1,2) 0
y(7,1,3) 1
y(7,1,4) 1
y(7,1,5) 1
y(7,2,1) 1
y(7,2,2) 1
y(7,2,3) 1
y(7,2,4) 1
y(7,2,5) 1
y(7,3,1) 1
y(7,3,2) 1
y(7,3,3) 1
y(7,3,4) 1
y(7,3,5) 0
y(7,4,1) 0
y(7,4,2) 0
y(7,4,3) 1
y(7,4,4) 1
y(7,4,5) 1
y(7,5,1) 0
y(7,5,2) 1
y(7,5,3) 1
y(7,5,4) 1
y(7,5,5) 0
y(7,6,1) 0
y(7,6,2) 1
y(7,6,3) 1
y(7,6,4) 1
y(7,6,5) 1
y(7,8,1) 1
y(7,8,2) 0
y(7,8,3) 1
y(7,8,4) 1
y(7,8,5) 1
y(7,9,1) 0
y(7,9,2) 1
y(7,9,3) 0
y(7,9,4) 1
y(7,9,5) 0
y(7,10,1) 0
y(7,10,2) 0
y(7,10,3) 0
y(7,10,4) 1
y(7,10,5) 0
y(7,11,1) 0
y(7,11,2) 1
y(7,11,3) 1
y(7,11,4) 1
y(7,11,5) 0
y(7,12,1) 0
y(7,12,2) 0
y(7,12,3) 1
y(7,12,4) 1
y(7,12,5) 1
y(7,13,1) 0
y(7,13,2) 0
y(7,13,3) 1
y(7,13,4) 1
y(7,13,5) 0
y(7,14,1) 0
y(7,14,2) 0
y(7,14,3) 1
y(7,14,4) 1
y(7,14,5) 1
y(7,15,1) 0
y(7,15,2) 0
y(7,15,3) 1
y(7,15,4) 1
y(7,15,5) 1
y(8,1,1) 0
y(8,1,2) 0
y(8,1,3) 1
y(8,1,4) 0
y(8,1,5) 1
y(8,2,1) 1
y(8,2,2) 1
y(8,2,3) 1
y(8,2,4) 0
y(8,2,5) 1
y(8,3,1) 1
y(8,3,2) 1
y(8,3,3) 1
y(8,3,4) 0
y(8,3,5) 0
y(8,4,1) 0
y(8,4,2) 0
y(8,4,3) 1
y(8,4,4) 1
y(8,4,5) 1
y(8,5,1) 0
y(8,5,2) 1
y(8,5,3) 1
y(8,5,4) 0
y(8,5,5) 0
y(8,6,1) 0
y(8,6,2) 1
y(8,6,3) 1
y(8,6,4) 0
y(8,6,5) 1
y(8,7,1) 0
y(8,7,2) 1
y(8,7,3) 0
y(8,7,4) 0
y(8,7,5) 0
y(8,9,1) 0
y(8,9,2) 1
y(8,9,3) 0
y(8,9,4) 1
y(8,9,5) 0
y(8,10,1) 0
y(8,10,2) 1
y(8,10,3) 0
y(8,10,4) 0
y(8,10,5) 0
y(8,11,1) 0
y(8,11,2) 1
y(8,11,3) 1
y(8,11,4) 0
y(8,11,5) 0
y(8,12,1) 0
y(8,12,2) 0
y(8,12,3) 1
y(8,12,4) 0
y(8,12,5) 0
y(8,13,1) 0
y(8,13,2) 0
y(8,13,3) 1
y(8,13,4) 0
y(8,13,5) 0
y(8,14,1) 0
y(8,14,2) 0
y(8,14,3) 1
y(8,14,4) 0
y(8,14,5) 0
y(8,15,1) 0
y(8,15,2) 0
y(8,15,3) 1
y(8,15,4) 1
y(8,15,5) 0
y(9,1,1) 1
y(9,1,2) 0
y(9,1,3) 1
y(9,1,4) 0
y(9,1,5) 1
y(9,2,1) 1
y(9,2,2) 1
y(9,2,3) 1
y(9,2,4) 0
y(9,2,5) 1
y(9,3,1) 1
y(9,3,2) 0
y(9,3,3) 1
y(9,3,4) 0
y(9,3,5) 0
y(9,4,1) 0
y(9,4,2) 0
y(9,4,3) 1
y(9,4,4) 0
y(9,4,5) 1
y(9,5,1) 0
y(9,5,2) 1
y(9,5,3) 1
y(9,5,4) 0
y(9,5,5) 1
y(9,6,1) 0
y(9,6,2) 1
y(9,6,3) 1
y(9,6,4) 0
y(9,6,5) 1
y(9,7,1) 1
y(9,7,2) 0
y(9,7,3) 1
y(9,7,4) 0
y(9,7,5) 1
y(9,8,1) 1
y(9,8,2) 0
y(9,8,3) 1
y(9,8,4) 0
y(9,8,5) 1
y(9,10,1) 1
y(9,10,2) 0
y(9,10,3) 0
y(9,10,4) 0
y(9,10,5) 0
y(9,11,1) 1
y(9,11,2) 1
y(9,11,3) 1
y(9,11,4) 0
y(9,11,5) 0
y(9,12,1) 0
y(9,12,2) 0
y(9,12,3) 1
y(9,12,4) 0
y(9,12,5) 1
y(9,13,1) 0
y(9,13,2) 0
y(9,13,3) 1
y(9,13,4) 0
y(9,13,5) 0
y(9,14,1) 1
y(9,14,2) 0
y(9,14,3) 1
y(9,14,4) 0
y(9,14,5) 1
y(9,15,1) 0
y(9,15,2) 0
y(9,15,3) 1
y(9,15,4) 0
y(9,15,5) 1
y(10,1,1) 1
y(10,1,2) 0
y(10,1,3) 1
y(10,1,4) 1
y(10,1,5) 1
y(10,2,1) 1
y(10,2,2) 1
y(10,2,3) 1
y(10,2,4) 0
y(10,2,5) 1
y(10,3,1) 1
y(10,3,2) 1
y(10,3,3) 1
y(10,3,4) 1
y(10,3,5) 1
y(10,4,1) 0
y(10,4,2) 0
y(10,4,3) 1
y(10,4,4) 1
y(10,4,5) 1
y(10,5,1) 0
y(10,5,2) 1
y(10,5,3) 1
y(10,5,4) 1
y(10,5,5) 1
y(10,6,1) 0
y(10,6,2) 1
y(10,6,3) 1
y(10,6,4) 1
y(10,6,5) 1
y(10,7,1) 1
y(10,7,2) 1
y(10,7,3) 1
y(10,7,4) 0
y(10,7,5) 1
y(10,8,1) 1
y(10,8,2) 0
y(10,8,3) 1
y(10,8,4) 1
y(10,8,5) 1
y(10,9,1) 0
y(10,9,2) 1
y(10,9,3) 1
y(10,9,4) 1
y(10,9,5) 1
y(10,11,1) 0
y(10,11,2) 1
y(10,11,3) 1
y(10,11,4) 0
y(10,11,5) 0
y(10,12,1) 0
y(10,12,2) 0
y(10,12,3) 1
y(10,12,4) 0
y(10,12,5) 1
y(10,13,1) 0
y(10,13,2) 0
y(10,13,3) 1
y(10,13,4) 0
y(10,13,5) 0
y(10,14,1) 0
y(10,14,2) 0
y(10,14,3) 1
y(10,14,4) 0
y(10,14,5) 1
y(10,15,1) 0
y(10,15,2) 0
y(10,15,3) 1
y(10,15,4) 1
y(10,15,5) 1
y(11,1,1) 1
y(11,1,2) 0
y(11,1,3) 1
y(11,1,4) 1
y(11,1,5) 1
y(11,2,1) 1
y(11,2,2) 0
y(11,2,3) 1
y(11,2,4) 1
y(11,2,5) 1
y(11,3,1) 1
y(11,3,2) 0
y(11,3,3) 1
y(11,3,4) 1
y(11,3,5) 1
y(11,4,1) 0
y(11,4,2) 0
y(11,4,3) 1
y(11,4,4) 1
y(11,4,5) 1
y(11,5,1) 0
y(11,5,2) 1
y(11,5,3) 1
y(11,5,4) 1
y(11,5,5) 1
y(11,6,1) 0
y(11,6,2) 0
y(11,6,3) 1
y(11,6,4) 1
y(11,6,5) 1
y(11,7,1) 1
y(11,7,2) 0
y(11,7,3) 0
y(11,7,4) 0
y(11,7,5) 1
y(11,8,1) 1
y(11,8,2) 0
y(11,8,3) 0
y(11,8,4) 1
y(11,8,5) 1
y(11,9,1) 0
y(11,9,2) 0
y(11,9,3) 0
y(11,9,4) 1
y(11,9,5) 1
y(11,10,1) 1
y(11,10,2) 0
y(11,10,3) 0
y(11,10,4) 1
y(11,10,5) 1
y(11,12,1) 0
y(11,12,2) 0
y(11,12,3) 1
y(11,12,4) 1
y(11,12,5) 1
y(11,13,1) 0
y(11,13,2) 0
y(11,13,3) 1
y(11,13,4) 0
y(11,13,5) 0
y(11,14,1) 1
y(11,14,2) 0
y(11,14,3) 1
y(11,14,4) 0
y(11,14,5) 1
y(11,15,1) 0
y(11,15,2) 0
y(11,15,3) 1
y(11,15,4) 1
y(11,15,5) 1
y(12,1,1) 1
y(12,1,2) 1
y(12,1,3) 0
y(12,1,4) 1
y(12,1,5) 1
y(12,2,1) 1
y(12,2,2) 1
y(12,2,3) 0
y(12,2,4) 0
y(12,2,5) 1
y(12,3,1) 1
y(12,3,2) 1
y(12,3,3) 0
y(12,3,4) 1
y(12,3,5) 0
y(12,4,1) 0
y(12,4,2) 1
y(12,4,3) 0
y(12,4,4) 1
y(12,4,5) 1
y(12,5,1) 1
y(12,5,2) 1
y(12,5,3) 0
y(12,5,4) 1
y(12,5,5) 0
y(12,6,1) 0
y(12,6,2) 1
y(12,6,3) 0
y(12,6,4) 1
y(12,6,5) 1
y(12,7,1) 1
y(12,7,2) 1
y(12,7,3) 0
y(12,7,4) 0
y(12,7,5) 0
y(12,8,1) 1
y(12,8,2) 1
y(12,8,3) 0
y(12,8,4) 1
y(12,8,5) 1
y(12,9,1) 1
y(12,9,2) 1
y(12,9,3) 0
y(12,9,4) 1
y(12,9,5) 0
y(12,10,1) 1
y(12,10,2) 1
y(12,10,3) 0
y(12,10,4) 1
y(12,10,5) 0
y(12,11,1) 1
y(12,11,2) 1
y(12,11,3) 0
y(12,11,4) 0
y(12,11,5) 0
y(12,13,1) 1
y(12,13,2) 1
y(12,13,3) 0
y(12,13,4) 0
y(12,13,5) 0
y(12,14,1) 1
y(12,14,2) 1
y(12,14,3) 0
y(12,14,4) 0
y(12,14,5) 1
y(12,15,1) 0
y(12,15,2) 1
y(12,15,3) 0
y(12,15,4) 1
y(12,15,5) 0
y(13,1,1) 1
y(13,1,2) 0
y(13,1,3) 0
y(13,1,4) 1
y(13,1,5) 1
y(13,2,1) 1
y(13,2,2) 1
y(13,2,3) 1
y(13,2,4) 1
y(13,2,5) 1
y(13,3,1) 1
y(13,3,2) 1
y(13,3,3) 1
y(13,3,4) 1
y(13,3,5) 1
y(13,4,1) 0
y(13,4,2) 0
y(13,4,3) 0
y(13,4,4) 1
y(13,4,5) 1
y(13,5,1) 1
y(13,5,2) 1
y(13,5,3) 0
y(13,5,4) 1
y(13,5,5) 1
y(13,6,1) 0
y(13,6,2) 1
y(13,6,3) 1
y(13,6,4) 1
y(13,6,5) 1
y(13,7,1) 1
y(13,7,2) 1
y(13,7,3) 0
y(13,7,4) 0
y(13,7,5) 1
y(13,8,1) 1
y(13,8,2) 1
y(13,8,3) 0
y(13,8,4) 1
y(13,8,5) 1
y(13,9,1) 1
y(13,9,2) 1
y(13,9,3) 0
y(13,9,4) 1
y(13,9,5) 1
y(13,10,1) 1
y(13,10,2) 1
y(13,10,3) 0
y(13,10,4) 1
y(13,10,5) 1
y(13,11,1) 1
y(13,11,2) 1
y(13,11,3) 0
y(13,11,4) 1
y(13,11,5) 1
y(13,12,1) 0
y(13,12,2) 0
y(13,12,3) 1
y(13,12,4) 1
y(13,12,5) 1
y(13,14,1) 1
y(13,14,2) 0
y(13,14,3) 0
y(13,14,4) 0
y(13,14,5) 1
y(13,15,1) 0
y(13,15,2) 0
y(13,15,3) 0
y(13,15,4) 1
y(13,15,5) 1
y(14,1,1) 1
y(14,1,2) 0
y(14,1,3) 1
y(14,1,4) 1
y(14,1,5) 1
y(14,2,1) 1
y(14,2,2) 1
y(14,2,3) 1
y(14,2,4) 1
y(14,2,5) 1
y(14,3,1) 1
y(14,3,2) 1
y(14,3,3) 1
y(14,3,4) 1
y(14,3,5) 0
y(14,4,1) 0
y(14,4,2) 0
y(14,4,3) 1
y(14,4,4) 1
y(14,4,5) 1
y(14,5,1) 0
y(14,5,2) 1
y(14,5,3) 1
y(14,5,4) 1
y(14,5,5) 0
y(14,6,1) 0
y(14,6,2) 1
y(14,6,3) 1
y(14,6,4) 1
y(14,6,5) 1
y(14,7,1) 1
y(14,7,2) 1
y(14,7,3) 0
y(14,7,4) 0
y(14,7,5) 0
y(14,8,1) 1
y(14,8,2) 1
y(14,8,3) 0
y(14,8,4) 1
y(14,8,5) 1
y(14,9,1) 0
y(14,9,2) 1
y(14,9,3) 0
y(14,9,4) 1
y(14,9,5) 0
y(14,10,1) 1
y(14,10,2) 1
y(14,10,3) 0
y(14,10,4) 1
y(14,10,5) 0
y(14,11,1) 0
y(14,11,2) 1
y(14,11,3) 0
y(14,11,4) 1
y(14,11,5) 0
y(14,12,1) 0
y(14,12,2) 0
y(14,12,3) 1
y(14,12,4) 1
y(14,12,5) 0
y(14,13,1) 0
y(14,13,2) 1
y(14,13,3) 1
y(14,13,4) 1
y(14,13,5) 0
y(14,15,1) 0
y(14,15,2) 1
y(14,15,3) 0
y(14,15,4) 1
y(14,15,5) 0
y(15,1,1) 1
y(15,1,2) 0
y(15,1,3) 1
y(15,1,4) 0
y(15,1,5) 1
y(15,2,1) 1
y(15,2,2) 1
y(15,2,3) 1
y(15,2,4) 0
y(15,2,5) 1
y(15,3,1) 1
y(15,3,2) 1
y(15,3,3) 1
y(15,3,4) 0
y(15,3,5) 0
y(15,4,1) 0
y(15,4,2) 0
y(15,4,3) 1
y(15,4,4) 1
y(15,4,5) 1
y(15,5,1) 1
y(15,5,2) 1
y(15,5,3) 1
y(15,5,4) 0
y(15,5,5) 0
y(15,6,1) 0
y(15,6,2) 1
y(15,6,3) 1
y(15,6,4) 0
y(15,6,5) 1
y(15,7,1) 1
y(15,7,2) 1
y(15,7,3) 0
y(15,7,4) 0
y(15,7,5) 0
y(15,8,1) 1
y(15,8,2) 1
y(15,8,3) 0
y(15,8,4) 0
y(15,8,5) 1
y(15,9,1) 1
y(15,9,2) 1
y(15,9,3) 0
y(15,9,4) 1
y(15,9,5) 0
y(15,10,1) 1
y(15,10,2) 1
y(15,10,3) 0
y(15,10,4) 0
y(15,10,5) 0
y(15,11,1) 1
y(15,11,2) 1
y(15,11,3) 0
y(15,11,4) 0
y(15,11,5) 0
y(15,12,1) 1
y(15,12,2) 0
y(15,12,3) 1
y(15,12,4) 0
y(15,12,5) 1
y(15,13,1) 1
y(15,13,2) 1
y(15,13,3) 1
y(15,13,4) 0
y(15,13,5) 0
y(15,14,1) 1
y(15,14,2) 0
y(15,14,3) 1
y(15,14,4) 0
y(15,14,5) 1
